p cnf 86 285
1 -2 -3 0
-1 2 -3 0
1 2 3 0
-1 -2 3 0
-6 4 0
-6 5 0
-4 -5 6 0
-6 -7 -8 0
6 7 -8 0
-6 7 8 0
6 -7 8 0
9 3 0
9 -8 0
-3 8 -9 0
11 -10 0
11 -8 0
10 8 -11 0
12 -11 0
12 -10 0
11 10 -12 0
-13 9 0
-13 -12 0
-9 12 13 0
-2 15 -16 0
2 -15 -16 0
-2 -15 16 0
2 15 16 0
-16 -17 -18 0
16 17 -18 0
-16 17 18 0
16 -17 18 0
-14 18 -19 0
14 -18 -19 0
-14 -18 19 0
14 18 19 0
20 -11 -21 0
-20 11 -21 0
20 11 21 0
-20 -11 21 0
22 19 0
22 21 0
-19 -21 -22 0
23 -7 0
23 22 0
7 -22 -23 0
-25 -23 0
-25 24 0
23 -24 25 0
-26 17 0
-26 14 0
-17 -14 26 0
-27 26 0
-27 -5 0
-26 5 27 0
-28 -2 0
-28 27 0
2 -27 28 0
-25 -28 -29 0
25 28 -29 0
-25 28 29 0
25 -28 29 0
30 15 0
30 -2 0
-15 2 -30 0
31 -18 0
31 2 0
18 -2 -31 0
-32 -30 0
-32 -31 0
30 31 32 0
33 1 0
33 15 0
-1 -15 -33 0
-34 -33 0
-34 33 0
-35 -32 0
-35 -34 0
32 34 35 0
-29 -35 -36 0
29 35 -36 0
-29 35 36 0
29 -35 36 0
15 -10 -37 0
-15 10 -37 0
15 10 37 0
-15 -10 37 0
-37 -31 -38 0
37 31 -38 0
-37 31 38 0
37 -31 38 0
-4 -39 -40 0
4 39 -40 0
-4 39 40 0
4 -39 40 0
-41 -30 0
-41 11 0
30 -11 41 0
42 8 0
42 -26 0
-8 26 -42 0
-44 42 0
-44 43 0
-42 -43 44 0
-45 26 0
-45 -44 0
-26 44 45 0
41 45 -46 0
-41 -45 -46 0
41 -45 46 0
-41 45 46 0
47 6 0
47 -4 0
-6 4 -47 0
-48 -46 0
-48 -47 0
46 47 48 0
-49 40 0
-49 -48 0
-40 48 49 0
50 38 0
50 49 0
-38 -49 -50 0
-51 -36 0
-51 50 0
36 -50 51 0
8 -10 -52 0
-8 10 -52 0
8 10 52 0
-8 -10 52 0
-53 51 0
-53 52 0
-51 -52 53 0
18 54 0
-18 54 0
-53 -54 -55 0
53 54 -55 0
-53 54 55 0
53 -54 55 0
56 -13 0
56 -55 0
13 55 -56 0
-14 -57 -58 0
14 57 -58 0
-14 57 58 0
14 -57 58 0
-59 -27 0
-59 -19 0
27 19 59 0
-60 -58 0
-60 -59 0
58 59 60 0
-61 57 0
-61 -10 0
-57 10 61 0
-62 30 0
-62 -61 0
-30 61 62 0
63 1 0
63 -33 0
-1 33 -63 0
-64 22 0
-64 -63 0
-22 63 64 0
65 -64 0
65 14 0
64 -14 -65 0
65 -15 -66 0
-65 15 -66 0
65 15 66 0
-65 -15 66 0
-62 66 -67 0
62 -66 -67 0
-62 -66 67 0
62 66 67 0
-16 57 -68 0
16 -57 -68 0
-16 -57 68 0
16 57 68 0
67 68 -69 0
-67 -68 -69 0
67 -68 69 0
-67 68 69 0
60 69 -70 0
-60 -69 -70 0
60 -69 70 0
-60 69 70 0
-71 -56 0
-71 70 0
56 -70 71 0
-72 5 0
-72 -15 0
-5 15 72 0
-18 14 -73 0
18 -14 -73 0
-18 -14 73 0
18 14 73 0
74 65 0
74 73 0
-65 -73 -74 0
75 72 0
75 -74 0
-72 74 -75 0
-76 17 0
-76 -27 0
-17 27 76 0
77 63 0
77 -76 0
-63 76 -77 0
75 77 -78 0
-75 -77 -78 0
75 -77 78 0
-75 77 78 0
-79 5 0
-79 61 0
-5 -61 79 0
-80 79 0
-80 -33 0
-79 33 80 0
-81 78 0
-81 80 0
-78 -80 81 0
82 -43 0
82 -65 0
43 65 -82 0
-83 -1 0
-83 31 0
1 -31 83 0
-84 82 0
-84 -83 0
-82 83 84 0
81 -84 -85 0
-81 84 -85 0
81 84 85 0
-81 -84 85 0
-86 -71 0
-86 85 0
71 -85 86 0
39 -25 -64 -79 0
-47 6 -50 -42 -22 0
-71 22 0
-18 -7 0
-61 -36 -80 0
-83 34 -82 0
-30 56 -34 0
-63 19 0
38 -57 48 -13 0
-80 83 -30 -56 0
26 -4 0
-68 -29 0
4 14 0
58 -4 -21 -77 18 44 0
-7 60 -48 0
86 -65 0
42 2 81 -45 3 0
18 42 -61 77 31 48 0
-49 -81 0
-33 29 45 49 27 0
50 -44 0
4 37 55 -5 0
-36 -2 -11 28 0
10 79 66 -51 0
-71 -64 -79 -19 -68 0
-61 3 0
33 -82 0
23 52 0
19 -45 61 22 0
-24 -13 14 0
24 18 68 43 8 -16 0
-3 -51 47 16 -25 0
-50 44 -51 0
-76 -22 15 42 36 -25 0
22 7 -58 0
18 -59 -54 79 -57 0
10 56 41 -40 0
7 -50 0
26 60 -43 0
11 75 2 24 0
7 40 0
64 47 -52 -23 0
-85 -5 73 -36 -35 0
21 -9 70 -69 -24 0
-72 82 -85 -27 55 -56 0
38 -22 0
61 -8 0
86 0
